data/benchmarks/bayes/75-15-6-q.cnf
p cnf 1065 1041
c weights 0.976893 0.02310699999999999 1 1 1 1 1 1 1 1 1 1 1 1 1 1 1 1 1 1 1 1 1 1 1 1 1 1 1 1 1 1 1 1 1 1 1 1 1 1 1 1 1 1 1 1 1 1 1 1 1 1 1 1 1 1 1 1 1 1 1 1 1 1 1 1 1 1 1 1 1 1 1 1 1 1 1 1 1 1 1 1 1 1 1 1 1 1 1 1 1 1 1 1 1 1 1 1 1 1 1 1 1 1 1 1 1 1 1 1 1 1 1 1 1 1 1 1 1 1 1 1 1 1 1 1 1 1 1 1 1 1 1 1 1 1 1 1 1 1 1 1 1 1 1 1 1 1 1 1 1 1 1 1 1 1 1 1 1 1 1 1 1 1 1 1 1 1 1 1 1 1 1 1 1 1 1 1 1 1 1 1 1 1 1 1 1 1 1 1 1 1 1 1 1 1 1 1 1 1 1 1 1 1 1 1 1 1 1 1 1 1 1 1 1 1 1 1 1 1 1 1 1 1 1 1 1 1 1 1 1 1 1 1 1 1 1 1 1 1 1 1 1 1 1 1 1 1 1 1 1 1 1 1 1 1 1 1 1 1 1 1 1 1 1 1 1 1 1 1 1 1 1 1 1 1 1 1 1 1 1 1 1 1 1 1 1 1 1 1 1 1 1 1 1 1 1 1 1 1 1 1 1 1 1 1 1 1 1 1 1 1 1 1 1 1 1 1 1 1 1 1 1 1 1 1 1 1 1 1 1 1 1 1 1 1 1 1 1 1 1 1 1 1 1 1 1 1 1 1 1 1 1 1 1 1 1 1 1 1 1 1 1 1 1 1 1 1 1 1 1 1 1 1 1 1 1 1 1 1 1 1 1 1 1 1 1 1 1 1 1 1 1 1 1 1 1 1 1 1 1 1 1 1 1 1 1 1 1 1 1 1 1 1 1 1 1 1 1 1 1 1 1 1 1 1 1 1 1 1 1 1 1 1 1 1 1 1 1 1 1 1 1 1 1 1 1 1 1 1 0.5 0.5 0.5 0.5 0.5 0.5 0.5 0.5 0.735947 0.264053 0.626605 0.37339500000000003 0.5 0.5 0.5 0.5 0.5 0.5 0.5 0.5 0.5 0.5 0.5 0.5 0.5 0.5 0.5 0.5 0.5 0.5 0.5 0.5 0.5 0.5 0.5 0.5 0.5 0.5 0.5 0.5 0.103145 0.896855 0.438491 0.561509 0.5 0.5 0.5 0.5 0.5 0.5 0.5 0.5 0.5 0.5 0.5 0.5 0.5 0.5 0.5 0.5 0.5 0.5 0.5 0.5 0.5 0.5 0.5 0.5 0.529797 0.47020300000000004 0.239452 0.760548 0.448127 0.5518730000000001 0.978184 0.021815999999999947 0.5 0.5 0.5 0.5 0.5 0.5 0.5 0.5 0.5 0.5 0.5 0.5 0.5 0.5 0.5 0.5 0.5 0.5 0.5 0.5 0.5 0.5 0.5 0.5 0.5 0.5 0.5 0.5 0.5 0.5 0.5 0.5 0.5 0.5 0.5 0.5 0.5 0.5 0.5 0.5 0.5 0.5 0.5 0.5 0.5 0.5 0.5 0.5 0.5 0.5 0.5 0.5 0.5 0.5 0.5 0.5 0.5 0.5 0.5 0.5 0.5 0.5 0.5 0.5 0.5 0.5 0.5 0.5 0.5 0.5 0.5 0.5 0.5 0.5 0.5 0.5 0.5 0.5 0.5 0.5 0.5 0.5 0.5 0.5 0.5 0.5 0.5 0.5 0.859573 0.14042699999999997 0.93243 0.06757000000000002 0.646164 0.35383600000000004 0.830614 0.16938600000000004 0.349064 0.650936 0.357289 0.642711 0.5 0.5 0.5 0.5 0.5 0.5 0.5 0.5 0.5 0.5 0.5 0.5 0.5 0.5 0.5 0.5 0.771101 0.22889899999999996 0.836857 0.16314300000000004 0.895253 0.10474700000000003 0.893062 0.10693799999999998 0.5 0.5 0.5 0.5 0.5 0.5 0.5 0.5 0.5 0.5 0.5 0.5 0.5 0.5 0.5 0.5 0.5 0.5 0.5 0.5 0.5 0.5 0.5 0.5 0.5 0.5 0.5 0.5 0.5 0.5 0.5 0.5 0.5 0.5 0.5 0.5 0.5 0.5 0.5 0.5 0.5 0.5 0.5 0.5 0.5 0.5 0.5 0.5 0.5 0.5 0.5 0.5 0.5 0.5 0.5 0.5 0.5 0.5 0.5 0.5 0.5 0.5 0.5 0.5 0.5 0.5 0.5 0.5 0.5 0.5 0.5 0.5 0.4127 0.5872999999999999 0.610246 0.38975400000000004 0.357383 0.642617 0.0481749 0.9518251 0.5 0.5 0.5 0.5 0.5 0.5 0.5 0.5 0.824175 0.175825 0.741473 0.25852699999999995 0.5 0.5 0.5 0.5 0.5 0.5 0.5 0.5 0.0799566 0.9200434 0.446793 0.553207 0.661705 0.338295 0.226792 0.773208 0.5 0.5 0.5 0.5 0.5 0.5 0.5 0.5 0.371084 0.628916 0.93076 0.06923999999999997 0.166068 0.833932 0.981329 0.018670999999999993 0.5 0.5 0.5 0.5 0.5 0.5 0.5 0.5 0.5 0.5 0.5 0.5 0.5 0.5 0.5 0.5 0.5 0.5 0.5 0.5 0.5 0.5 0.5 0.5 0.5 0.5 0.5 0.5 0.5 0.5 0.5 0.5 0.5 0.5 0.5 0.5 0.5 0.5 0.5 0.5 0.343411 0.656589 0.872967 0.12703299999999995 0.135296 0.864704 0.32474 0.67526 0.5 0.5 0.5 0.5 0.5 0.5 0.5 0.5 0.749064 0.25093600000000005 0.500254 0.499746 0.397725 0.602275 0.750327 0.24967300000000003 0.5 0.5 0.5 0.5 0.5 0.5 0.5 0.5 0.696794 0.303206 0.696764 0.30323599999999995 0.752956 0.24704400000000004 0.0811539 0.9188461 0.5 0.5 0.5 0.5 0.658187 0.34181300000000003 0.115973 0.884027 0.868017 0.13198299999999996 0.627415 0.37258500000000006 0.5 0.5 0.5 0.5 0.5 0.5 0.5 0.5 0.5 0.5 0.5 0.5 0.5 0.5 0.5 0.5 0.5 0.5 0.5 0.5 0.5 0.5 0.5 0.5 0.5 0.5 0.5 0.5 0.5 0.5 0.5 0.5 0.5 0.5 0.5 0.5 0.5 0.5 0.5 0.5 0.218294 0.781706 0.853656 0.14634400000000003 0.766454 0.23354600000000003 0.845709 0.15429099999999996 0.5 0.5 0.5 0.5 0.5 0.5 0.5 0.5 0.5 0.5 0.5 0.5 0.5 0.5 0.5 0.5 0.416205 0.5837950000000001 0.848061 0.15193900000000005 0.832089 0.16791100000000003 0.636746 0.36325399999999997 0.5 0.5 0.5 0.5 0.5 0.5 0.5 0.5 0.5 0.5 0.5 0.5 0.5 0.5 0.5 0.5 0.5 0.5 0.5 0.5 0.5 0.5 0.5 0.5 0.5 0.5 0.5 0.5 0.5 0.5 0.5 0.5 0.5 0.5 0.5 0.5 0.5 0.5 0.5 0.5 0.5 0.5 0.5 0.5 0.851707 0.148293 0.95434 0.045660000000000034 0.879133 0.12086699999999995 0.772715 0.22728499999999996 0.391231 0.608769 0.534803 0.46519699999999997 0.508665 0.49133499999999997 0.0211067 0.9788933 0.204191 0.795809 0.211089 0.788911 0.984735 0.015264999999999973 0.798155 0.20184500000000005 0.5 0.5 0.5 0.5 0.5 0.5 0.5 0.5 0.5 0.5 0.5 0.5 0.5 0.5 0.5 0.5 0.5 0.5 0.5 0.5 0.5 0.5 0.5 0.5 0.5 0.5 0.5 0.5 0.5 0.5 0.5 0.5 0.5 0.5 0.5 0.5 0.5 0.5 0.5 0.5 0.5 0.5 0.5 0.5 0.5 0.5 0.5 0.5 0.996108 0.0038920000000000066 0.368804 0.631196 0.947508 0.05249199999999998 0.869458 0.13054200000000005 0.5 0.5 0.5 0.5 0.5 0.5 0.5 0.5 0.258019 0.741981 0.65985 0.34014999999999995 0.144275 0.8557250000000001 0.34415 0.65585 0.5 0.5 0.5 0.5 0.5 0.5 0.5 0.5 0.341134 0.658866 0.452178 0.547822 0.5 0.5 0.5 0.5 0.5 0.5 0.5 0.5 0.5 0.5 0.5 0.5 0.5 0.5 0.5 0.5 0.524157 0.475843 0.720862 0.279138 0.939929 0.060070999999999986 0.129372 0.870628 0.217678 0.782322 0.0534229 0.9465771 0.0907581 0.9092419 0.877528 0.12247200000000003 0.5 0.5 0.5 0.5 0.5 0.5 0.5 0.5 0.5 0.5 0.5 0.5 0.5 0.5 0.5 0.5 0.5 0.5 0.5 0.5 0.5 0.5 0.5 0.5 0.681525 0.31847499999999995 0.641799 0.358201 0.993025 0.0069749999999999535 0.336223 0.6637770000000001 0.959018 0.04098199999999996 0.86038 0.13961999999999997 0.522017 0.47798300000000005 0.898947 0.10105299999999995 0.354756 0.6452439999999999 0.116626 0.883374 0.0431753 0.9568247 0.445514 0.554486 0.240873 0.759127 0.880423 0.11957700000000004 0.933251 0.06674899999999995 0.120665 0.879335 0.5 0.5 0.5 0.5 0.5 0.5 0.5 0.5 0.5 0.5 0.5 0.5 0.5 0.5 0.5 0.5 0.5 0.5 0.5 0.5 0.5 0.5 0.5 0.5 0.5 0.5 0.5 0.5 0.0960829 0.9039171 0.251453 0.7485470000000001 0.790456 0.20954399999999995 0.450839 0.549161 0.5 0.5 0.5 0.5 0.5 0.5 0.5 0.5 0.295484 0.7045159999999999 0.195169 0.804831 0.31044 0.68956 0.482825 0.5171749999999999 0.5 0.5 0.5 0.5 0.5 0.5 0.5 0.5 0.5 0.5 0.5 0.5 0.5 0.5 0.5 0.5 0.449278 0.5507219999999999 0.270685 0.7293149999999999 0.835632 0.16436799999999996 0.0233443 0.9766557 0.5 0.5 0.5 0.5 0.5 0.5 0.5 0.5 0.5 0.5 0.5 0.5 0.5 0.5 0.5 0.5 0.5 0.5 0.5 0.5 0.5 0.5 0.5 0.5 0.0228278 0.9771722 0.648654 0.35134600000000005 0.950787 0.04921299999999995 0.391462 0.608538 0.5 0.5 0.5 0.5 0.5 0.5 0.5 0.5 0.5 0.5 0.5 0.5 0.5 0.5 0.5 0.5 0.5 0.5 0.5 0.5 0.5 0.5 0.5 0.5 0.5 0.5 0.5 0.5 0.5 0.5 0.5 0.5 0.5 0.5 0.5 0.5 0.5 0.5 0.5 0.5 0.5 0.5 0.5 0.5 0.452946 0.5470539999999999 0.710728 0.289272 0.0471811 0.9528189 0.880467 0.119533 0.5 0.5 0.5 0.5 0.5 0.5 0.5 0.5 0.384994 0.6150059999999999 0.57991 0.42008999999999996 0.959183 0.04081699999999999 0.434943 0.5650569999999999 0.5 0.5 0.5 0.5 0.5 0.5 0.5 0.5 0.5 0.5 0.5 0.5 0.5 0.5 0.5 0.5 0.5 0.5 0.5 0.5 0.5 0.5 0.5 0.5 0.5 0.5 0.5 0.5 0.5 0.5 0.5 0.5 0.5 0.5 0.5 0.5 0.5 0.5 0.5 0.5 0.5 0.5 0.5 0.5 0.5 0.5 0.5 0.5 0.0960699 0.9039301 0.739477 0.26052299999999995 0.0471584 0.9528416 0.444448 0.555552 0.5 0.5 0.5 0.5 0.5 0.5 0.5 0.5 0.432377 0.567623 0.550919 0.44908099999999995 0.0996492 0.9003508 0.257656 0.742344 0.5 0.5 0.5 0.5 0.5 0.5 0.5 0.5 0.5 0.5 0.5 0.5 0.5 0.5 0.5 0.5 0.5 0.5 0.5 0.5 0.206572 0.793428 0.391315 0.6086849999999999 0.809686 0.19031399999999998 0.302642 0.6973579999999999 0.5 0.5 0.5 0.5 0.5 0.5 0.5 0.5 0.5 0.5 0.5 0.5 0.5 0.5 0.5 0.5 0.364865 0.635135 0.318404 0.681596 0.450064 0.549936 0.613049 0.38695100000000004 0.576404 0.423596 0.0569508 0.9430492 0.548859 0.451141 0.739219 0.26078100000000004 0.5 0.5 0.5 0.5 0.5 0.5 0.5 0.5 0.5 0.5 0.5 0.5 0.5 0.5 0.5 0.5 0.5 0.5 0.5 0.5 0.5 0.5 0.5 0.5 0.5 0.5 0.5 0.5 0.5 0.5 0.5 0.5 0.5 0.5 0.5 0.5 0.5 0.5 0.5 0.5 0.5 0.5 0.5 0.5 0.5 0.5 0.5 0.5 0.5 0.5 0.5 0.5 0.5 0.5 0.5 0.5 0.5 0.5 0.5 0.5 0.5 0.5 0.5 0.5 0.434901 0.565099 0.405629 0.594371 0.5 0.5 0.5 0.5 0.5 0.5 0.5 0.5 0.5 0.5 0.5 0.5 0.5 0.5 0.5 0.5 0.5 0.5 0.5 0.5 0.5 0.5 0.5 0.5 0.5 0.5 0.5 0.5 0.5 0.5 0.5 0.5 0.5 0.5 0.5 0.5 0.5 0.5 0.5 0.5 0.5 0.5 0.5 0.5 0.5 0.5 0.5 0.5 0.5 0.5 0.5 0.5 0.5 0.5 0.5 0.5 0.5 0.5 0.5 0.5 0.5 0.5 0.5 0.5 0.5 0.5 0.5 0.5 0.5 0.5 0.5 0.5 0.5 0.5 0.5 0.5 0.5 0.5 0.5 0.5 0.5 0.5 0.5 0.5 0.5 0.5 0.5 0.5 0.5 0.5 0.5 0.5 0.5 0.5 0.5 0.5 0.5 0.5 0.5 0.5 0.5 0.5 0.5 0.5 0.5 0.5 0.5 0.5 0.5 0.5 0.5 0.5 0.5 0.5 0.5 0.5 0.5 0.5 0.5 0.5 0.5 0.5 0.5 0.5 0.5 0.5 0.5 0.5 0.5 0.5 0.5 0.5 0.5 0.5 0.5 0.5 0.5 0.5 0.5 0.5 0.255946 0.744054 0.0498348 0.9501652 0.359923 0.640077 0.979764 0.020236000000000032 0.0395364 0.9604636 0.700174 0.29982600000000004 0.0311402 0.9688598 0.477937 0.5220629999999999 0.5 0.5 0.5 0.5 0.5 0.5 0.5 0.5 0.871074 0.12892599999999999 0.239387 0.760613 0.285507 0.714493 0.330451 0.669549 0.936053 0.06394699999999998 0.150086 0.8499140000000001 0.61803 0.38197000000000003 0.170513 0.829487 0.5 0.5 0.5 0.5 0.5 0.5 0.5 0.5 0.5 0.5 0.5 0.5 0.5 0.5 0.5 0.5 0.5 0.5 0.5 0.5 0.5 0.5 0.5 0.5 0.5 0.5 0.5 0.5 0.5 0.5 0.5 0.5 0.5 0.5 0.5 0.5 0.5 0.5 0.5 0.5 0.5 0.5 0.5 0.5 0.5 0.5 0.5 0.5 0.5 0.5 0.5 0.5 0.5 0.5 0.5 0.5 0.5 0.5 0.5 0.5 0.5 0.5 0.5 0.5 0.5 0.5 0.5 0.5 0.5 0.5 0.5 0.5 0.5 0.5 0.5 0.5 0.5 0.5 0.5 0.5 0.5 0.5 0.5 0.5 0.5 0.5 0.5 0.5 0.5 0.5 0.5 0.5 0.5 0.5 0.5 0.5 0.5 0.5 0.5 0.5 0.5 0.5 0.5 0.5 0.5 0.5 0.5 0.5 0.5 0.5 0.5 0.5 0.5 0.5 0.5 0.5 0.5 0.5 0.5 0.5 0.5 0.5 0.5 0.5 0.5 0.5 0.5 0.5 0.5 0.5 0.5 0.5 0.128189 0.871811 0.574976 0.42502399999999996 0.0505714 0.9494286 0.391894 0.608106 0.5 0.5 0.5 0.5 0.5 0.5 0.5 0.5 0.5 0.5 0.5 0.5 0.5 0.5 0.5 0.5 0.5 0.5 0.5 0.5 0.5 0.5 0.5 0.5 0.5 0.5 0.5 0.5 0.5 0.5 0.5 0.5 0.5 0.5 0.5 0.5 0.386874 0.6131260000000001 0.577684 0.422316 0.862688 0.137312 0.515064 0.48493600000000003 0.5 0.5 0.5 0.5 0.5 0.5 0.5 0.5 0.5 0.5 0.5 0.5 0.5 0.5 0.5 0.5 0.5 0.5 0.5 0.5 0.5 0.5 0.5 0.5 0.5 0.5 0.5 0.5 0.5 0.5 0.5 0.5 0.731955 0.268045 0.292154 0.707846 0.712879 0.28712099999999996 0.676874 0.323126 0.5 0.5 0.5 0.5 0.5 0.5 0.5 0.5 0.5 0.5 0.5 0.5 0.5 0.5 0.5 0.5 0.79631 0.20369000000000004 0.418606 0.581394 0.339327 0.6606730000000001 0.82558 0.17442000000000002 0.5 0.5 0.5 0.5 0.5 0.5 0.5 0.5 0.5 0.5 0.5 0.5 0.5 0.5 0.5 0.5 0.522025 0.47797500000000004 0.693552 0.30644800000000005 0.123774 0.876226 0.234905 0.765095 0.5 0.5 0.5 0.5 0.5 0.5 0.5 0.5 0.5 0.5 0.5 0.5 0.5 0.5 0.5 0.5 0.5 0.5 0.5 0.5 0.5 0.5 0.5 0.5 0.5 0.5 0.5 0.5 0.380106 0.619894 0.207407 0.792593 0.244671 0.755329 0.651759 0.348241 0.123618 0.876382 0.229781 0.770219 0.946428 0.05357199999999995 0.955238 0.04476199999999997 0.63998 0.36002 0.0790125 0.9209875 0.986711 0.013288999999999995 0.0104068 0.9895932 0.5 0.5 0.5 0.5 0.5 0.5 0.5 0.5 0.5 0.5 0.5 0.5 0.5 0.5 0.5 0.5 0.5 0.5 0.5 0.5 0.5 0.5 0.5 0.5 0.5 0.5 0.5 0.5 0.5 0.5 0.5 0.5 0.662644 0.337356 0.633688 0.36631199999999997 0.708432 0.29156800000000005 0.617883 0.38211700000000004 0.5 0.5 0.5 0.5 0.5 0.5 0.5 0.5 0.5 0.5 0.5 0.5 0.5 0.5 0.5 0.5 0.5 0.5 0.5 0.5 0.5 0.5 0.5 0.5 0.5 0.5 0.5 0.5 0.5 0.5 0.5 0.5
-1 -2 0
1 2 0
-2 -3 0
2 3 0
-3 -230 4 0
-3 230 -4 0
3 -231 4 0
3 231 -4 0
-4 5 0
4 -5 0
-5 6 0
5 -6 0
-6 -7 0
6 7 0
-7 8 0
7 -8 0
-8 -9 0
8 9 0
-9 -10 0
9 10 0
-10 11 0
10 -11 0
-11 -246 12 0
-11 246 -12 0
11 -247 12 0
11 247 -12 0
-12 13 0
12 -13 0
-13 -14 0
13 14 0
-14 -15 0
14 15 0
-1 -16 0
1 16 0
-16 -2 -17 0
-16 2 -17 0
16 -2 17 0
16 2 -17 0
-17 -3 -260 18 0
-17 -3 260 -18 0
-17 3 -261 18 0
-17 3 261 -18 0
17 -3 -262 18 0
17 -3 262 -18 0
17 3 -263 18 0
17 3 263 -18 0
-18 -4 19 0
-18 4 19 0
18 -4 19 0
18 4 -19 0
-19 -5 20 0
-19 5 -20 0
19 -5 -20 0
19 5 -20 0
-20 -6 21 0
-20 6 -21 0
20 -6 -21 0
20 6 -21 0
-21 -7 22 0
-21 7 22 0
21 -7 -22 0
21 7 -22 0
-22 -8 -23 0
-22 8 -23 0
22 -8 23 0
22 8 -23 0
-23 -9 24 0
-23 9 -24 0
23 -9 -24 0
23 9 -24 0
-24 -10 -25 0
-24 10 -25 0
24 -10 25 0
24 10 -25 0
-25 -11 26 0
-25 11 26 0
25 -11 -26 0
25 11 26 0
-26 -12 27 0
-26 12 -27 0
26 -12 -27 0
26 12 -27 0
-27 -13 -28 0
-27 13 28 0
27 -13 -28 0
27 13 -28 0
-28 -14 29 0
-28 14 29 0
28 -14 29 0
28 14 -29 0
-29 -15 -308 30 0
-29 -15 308 -30 0
-29 15 -309 30 0
-29 15 309 -30 0
29 -15 -310 30 0
29 -15 310 -30 0
29 15 -311 30 0
29 15 311 -30 0
-16 -312 31 0
-16 312 -31 0
16 -313 31 0
16 313 -31 0
-31 -17 32 0
-31 17 -32 0
31 -17 -32 0
31 17 -32 0
-32 -18 -33 0
-32 18 -33 0
32 -18 33 0
32 18 -33 0
-33 -19 -322 34 0
-33 -19 322 -34 0
-33 19 -323 34 0
-33 19 323 -34 0
33 -19 -324 34 0
33 -19 324 -34 0
33 19 -325 34 0
33 19 325 -34 0
-34 -20 35 0
-34 20 -35 0
34 -20 -35 0
34 20 -35 0
-35 -21 -36 0
-35 21 36 0
35 -21 36 0
35 21 -36 0
-36 -22 37 0
-36 22 -37 0
36 -22 37 0
36 22 -37 0
-37 -23 -38 0
-37 23 -38 0
37 -23 -38 0
37 23 38 0
-38 -24 -39 0
-38 24 39 0
38 -24 -39 0
38 24 -39 0
-39 -25 40 0
-39 25 -40 0
39 -25 40 0
39 25 -40 0
-40 -26 -41 0
-40 26 41 0
40 -26 41 0
40 26 41 0
-41 -27 42 0
-41 27 42 0
41 -27 42 0
41 27 -42 0
-42 -28 -43 0
-42 28 -43 0
42 -28 43 0
42 28 43 0
-43 -29 -362 44 0
-43 -29 362 -44 0
-43 29 -363 44 0
-43 29 363 -44 0
43 -29 -364 44 0
43 -29 364 -44 0
43 29 -365 44 0
43 29 365 -44 0
-44 -30 45 0
-44 30 -45 0
44 -30 45 0
44 30 45 0
-31 -370 46 0
-31 370 -46 0
31 -371 46 0
31 371 -46 0
-46 -32 -47 0
-46 32 -47 0
46 -32 47 0
46 32 -47 0
-47 -33 -376 48 0
-47 -33 376 -48 0
-47 33 -377 48 0
-47 33 377 -48 0
47 -33 -378 48 0
47 -33 378 -48 0
47 33 -379 48 0
47 33 379 -48 0
-48 -34 49 0
-48 34 -49 0
48 -34 49 0
48 34 49 0
-49 -35 -384 50 0
-49 -35 384 -50 0
-49 35 -385 50 0
-49 35 385 -50 0
49 -35 -386 50 0
49 -35 386 -50 0
49 35 -387 50 0
49 35 387 -50 0
-50 -36 51 0
-50 36 -51 0
50 -36 51 0
50 36 51 0
-51 -37 -52 0
-51 37 52 0
51 -37 52 0
51 37 52 0
-52 -38 53 0
-52 38 -53 0
52 -38 53 0
52 38 53 0
-53 -39 54 0
-53 39 54 0
53 -39 -54 0
53 39 -54 0
-54 -40 55 0
-54 40 -55 0
54 -40 -55 0
54 40 55 0
-55 -41 -408 56 0
-55 -41 408 -56 0
-55 41 -409 56 0
-55 41 409 -56 0
55 -41 -410 56 0
55 -41 410 -56 0
55 41 -411 56 0
55 41 411 -56 0
-56 -42 57 0
-56 42 57 0
56 -42 57 0
56 42 -57 0
-57 -43 -416 58 0
-57 -43 416 -58 0
-57 43 -417 58 0
-57 43 417 -58 0
57 -43 -418 58 0
57 -43 418 -58 0
57 43 -419 58 0
57 43 419 -58 0
-58 -44 59 0
-58 44 -59 0
58 -44 59 0
58 44 59 0
-59 -45 -424 60 0
-59 -45 424 -60 0
-59 45 -425 60 0
-59 45 425 -60 0
59 -45 -426 60 0
59 -45 426 -60 0
59 45 -427 60 0
59 45 427 -60 0
-46 -61 0
46 61 0
-61 -47 -430 62 0
-61 -47 430 -62 0
-61 47 -431 62 0
-61 47 431 -62 0
61 -47 -432 62 0
61 -47 432 -62 0
61 47 -433 62 0
61 47 433 -62 0
-62 -48 -63 0
-62 48 63 0
62 -48 63 0
62 48 63 0
-63 -49 64 0
-63 49 -64 0
63 -49 -64 0
63 49 64 0
-64 -50 -65 0
-64 50 -65 0
64 -50 65 0
64 50 -65 0
-65 -51 -66 0
-65 51 66 0
65 -51 -66 0
65 51 -66 0
-66 -52 -67 0
-66 52 -67 0
66 -52 67 0
66 52 -67 0
-67 -53 -454 68 0
-67 -53 454 -68 0
-67 53 -455 68 0
-67 53 455 -68 0
67 -53 -456 68 0
67 -53 456 -68 0
67 53 -457 68 0
67 53 457 -68 0
-68 -54 69 0
-68 54 69 0
68 -54 -69 0
68 54 69 0
-69 -55 70 0
-69 55 -70 0
69 -55 70 0
69 55 70 0
-70 -56 -466 71 0
-70 -56 466 -71 0
-70 56 -467 71 0
-70 56 467 -71 0
70 -56 -468 71 0
70 -56 468 -71 0
70 56 -469 71 0
70 56 469 -71 0
-71 -57 72 0
-71 57 72 0
71 -57 -72 0
71 57 -72 0
-72 -58 73 0
-72 58 -73 0
72 -58 -73 0
72 58 -73 0
-73 -59 -74 0
-73 59 -74 0
73 -59 74 0
73 59 -74 0
-74 -60 -75 0
-74 60 -75 0
74 -60 -75 0
74 60 75 0
-61 76 0
61 -76 0
-76 -62 77 0
-76 62 -77 0
76 -62 -77 0
76 62 -77 0
-77 -63 -492 78 0
-77 -63 492 -78 0
-77 63 -493 78 0
-77 63 493 -78 0
77 -63 -494 78 0
77 -63 494 -78 0
77 63 -495 78 0
77 63 495 -78 0
-78 -64 -496 79 0
-78 -64 496 -79 0
-78 64 -497 79 0
-78 64 497 -79 0
78 -64 -498 79 0
78 -64 498 -79 0
78 64 -499 79 0
78 64 499 -79 0
-79 -65 -500 80 0
-79 -65 500 -80 0
-79 65 -501 80 0
-79 65 501 -80 0
79 -65 -502 80 0
79 -65 502 -80 0
79 65 -503 80 0
79 65 503 -80 0
-80 -66 81 0
-80 66 81 0
80 -66 -81 0
80 66 -81 0
-81 -67 -82 0
-81 67 -82 0
81 -67 -82 0
81 67 82 0
-82 -68 83 0
-82 68 -83 0
82 -68 83 0
82 68 83 0
-83 -69 84 0
-83 69 -84 0
83 -69 84 0
83 69 -84 0
-84 -70 -85 0
-84 70 85 0
84 -70 85 0
84 70 85 0
-85 -71 -86 0
-85 71 -86 0
85 -71 -86 0
85 71 86 0
-86 -72 -528 87 0
-86 -72 528 -87 0
-86 72 -529 87 0
-86 72 529 -87 0
86 -72 -530 87 0
86 -72 530 -87 0
86 72 -531 87 0
86 72 531 -87 0
-87 -73 -88 0
-87 73 88 0
87 -73 88 0
87 73 88 0
-88 -74 -536 89 0
-88 -74 536 -89 0
-88 74 -537 89 0
-88 74 537 -89 0
88 -74 -538 89 0
88 -74 538 -89 0
88 74 -539 89 0
88 74 539 -89 0
-89 -75 -90 0
-89 75 90 0
89 -75 -90 0
89 75 90 0
-76 -544 91 0
-76 544 -91 0
76 -545 91 0
76 545 -91 0
-91 -77 92 0
-91 77 -92 0
91 -77 92 0
91 77 92 0
-92 -78 -93 0
-92 78 93 0
92 -78 -93 0
92 78 -93 0
-93 -79 -554 94 0
-93 -79 554 -94 0
-93 79 -555 94 0
-93 79 555 -94 0
93 -79 -556 94 0
93 -79 556 -94 0
93 79 -557 94 0
93 79 557 -94 0
-94 -80 -558 95 0
-94 -80 558 -95 0
-94 80 -559 95 0
-94 80 559 -95 0
94 -80 -560 95 0
94 -80 560 -95 0
94 80 -561 95 0
94 80 561 -95 0
-95 -81 -96 0
-95 81 -96 0
95 -81 -96 0
95 81 96 0
-96 -82 97 0
-96 82 -97 0
96 -82 -97 0
96 82 -97 0
-97 -83 98 0
-97 83 98 0
97 -83 98 0
97 83 -98 0
-98 -84 -574 99 0
-98 -84 574 -99 0
-98 84 -575 99 0
-98 84 575 -99 0
98 -84 -576 99 0
98 -84 576 -99 0
98 84 -577 99 0
98 84 577 -99 0
-99 -85 -578 100 0
-99 -85 578 -100 0
-99 85 -579 100 0
-99 85 579 -100 0
99 -85 -580 100 0
99 -85 580 -100 0
99 85 -581 100 0
99 85 581 -100 0
-100 -86 -582 101 0
-100 -86 582 -101 0
-100 86 -583 101 0
-100 86 583 -101 0
100 -86 -584 101 0
100 -86 584 -101 0
100 86 -585 101 0
100 86 585 -101 0
-101 -87 -586 102 0
-101 -87 586 -102 0
-101 87 -587 102 0
-101 87 587 -102 0
101 -87 -588 102 0
101 -87 588 -102 0
101 87 -589 102 0
101 87 589 -102 0
-102 -88 -103 0
-102 88 -103 0
102 -88 103 0
102 88 -103 0
-103 -89 104 0
-103 89 104 0
103 -89 -104 0
103 89 104 0
-104 -90 105 0
-104 90 105 0
104 -90 -105 0
104 90 105 0
-91 106 0
91 -106 0
-106 -92 -604 107 0
-106 -92 604 -107 0
-106 92 -605 107 0
-106 92 605 -107 0
106 -92 -606 107 0
106 -92 606 -107 0
106 92 -607 107 0
106 92 607 -107 0
-107 -93 108 0
-107 93 -108 0
107 -93 108 0
107 93 -108 0
-108 -94 -612 109 0
-108 -94 612 -109 0
-108 94 -613 109 0
-108 94 613 -109 0
108 -94 -614 109 0
108 -94 614 -109 0
108 94 -615 109 0
108 94 615 -109 0
-109 -95 -110 0
-109 95 -110 0
109 -95 110 0
109 95 110 0
-110 -96 111 0
-110 96 -111 0
110 -96 111 0
110 96 -111 0
-111 -97 -624 112 0
-111 -97 624 -112 0
-111 97 -625 112 0
-111 97 625 -112 0
111 -97 -626 112 0
111 -97 626 -112 0
111 97 -627 112 0
111 97 627 -112 0
-112 -98 113 0
-112 98 -113 0
112 -98 -113 0
112 98 -113 0
-113 -99 114 0
-113 99 -114 0
113 -99 114 0
113 99 114 0
-114 -100 -115 0
-114 100 -115 0
114 -100 115 0
114 100 -115 0
-115 -101 -640 116 0
-115 -101 640 -116 0
-115 101 -641 116 0
-115 101 641 -116 0
115 -101 -642 116 0
115 -101 642 -116 0
115 101 -643 116 0
115 101 643 -116 0
-116 -102 -117 0
-116 102 117 0
116 -102 -117 0
116 102 -117 0
-117 -103 118 0
-117 103 -118 0
117 -103 -118 0
117 103 -118 0
-118 -104 -119 0
-118 104 119 0
118 -104 -119 0
118 104 -119 0
-119 -105 120 0
-119 105 120 0
119 -105 120 0
119 105 -120 0
-106 121 0
106 -121 0
-121 -107 122 0
-121 107 -122 0
121 -107 122 0
121 107 122 0
-122 -108 -666 123 0
-122 -108 666 -123 0
-122 108 -667 123 0
-122 108 667 -123 0
122 -108 -668 123 0
122 -108 668 -123 0
122 108 -669 123 0
122 108 669 -123 0
-123 -109 -124 0
-123 109 -124 0
123 -109 124 0
123 109 -124 0
-124 -110 -674 125 0
-124 -110 674 -125 0
-124 110 -675 125 0
-124 110 675 -125 0
124 -110 -676 125 0
124 -110 676 -125 0
124 110 -677 125 0
124 110 677 -125 0
-125 -111 -126 0
-125 111 126 0
125 -111 126 0
125 111 126 0
-126 -112 -127 0
-126 112 -127 0
126 -112 127 0
126 112 127 0
-127 -113 -128 0
-127 113 128 0
127 -113 128 0
127 113 128 0
-128 -114 -129 0
-128 114 129 0
128 -114 -129 0
128 114 -129 0
-129 -115 130 0
-129 115 -130 0
129 -115 -130 0
129 115 130 0
-130 -116 131 0
-130 116 131 0
130 -116 -131 0
130 116 -131 0
-131 -117 -702 132 0
-131 -117 702 -132 0
-131 117 -703 132 0
-131 117 703 -132 0
131 -117 -704 132 0
131 -117 704 -132 0
131 117 -705 132 0
131 117 705 -132 0
-132 -118 -133 0
-132 118 -133 0
132 -118 133 0
132 118 133 0
-133 -119 -710 134 0
-133 -119 710 -134 0
-133 119 -711 134 0
-133 119 711 -134 0
133 -119 -712 134 0
133 -119 712 -134 0
133 119 -713 134 0
133 119 713 -134 0
-134 -120 -135 0
-134 120 -135 0
134 -120 135 0
134 120 -135 0
-121 136 0
121 -136 0
-136 -122 137 0
-136 122 -137 0
136 -122 -137 0
136 122 -137 0
-137 -123 -724 138 0
-137 -123 724 -138 0
-137 123 -725 138 0
-137 123 725 -138 0
137 -123 -726 138 0
137 -123 726 -138 0
137 123 -727 138 0
137 123 727 -138 0
-138 -124 -139 0
-138 124 139 0
138 -124 -139 0
138 124 -139 0
-139 -125 140 0
-139 125 140 0
139 -125 140 0
139 125 -140 0
-140 -126 -736 141 0
-140 -126 736 -141 0
-140 126 -737 141 0
-140 126 737 -141 0
140 -126 -738 141 0
140 -126 738 -141 0
140 126 -739 141 0
140 126 739 -141 0
-141 -127 -740 142 0
-141 -127 740 -142 0
-141 127 -741 142 0
-141 127 741 -142 0
141 -127 -742 142 0
141 -127 742 -142 0
141 127 -743 142 0
141 127 743 -142 0
-142 -128 -143 0
-142 128 143 0
142 -128 143 0
142 128 -143 0
-143 -129 144 0
-143 129 144 0
143 -129 -144 0
143 129 -144 0
-144 -130 145 0
-144 130 -145 0
144 -130 145 0
144 130 -145 0
-145 -131 -146 0
-145 131 146 0
145 -131 146 0
145 131 -146 0
-146 -132 147 0
-146 132 147 0
146 -132 -147 0
146 132 147 0
-147 -133 -148 0
-147 133 148 0
147 -133 148 0
147 133 148 0
-148 -134 149 0
-148 134 149 0
148 -134 -149 0
148 134 149 0
-149 -135 150 0
-149 135 150 0
149 -135 150 0
149 135 -150 0
-136 -776 151 0
-136 776 -151 0
136 -777 151 0
136 777 -151 0
-151 -137 152 0
-151 137 -152 0
151 -137 -152 0
151 137 -152 0
-152 -138 -153 0
-152 138 153 0
152 -138 153 0
152 138 -153 0
-153 -139 154 0
-153 139 -154 0
153 -139 154 0
153 139 154 0
-154 -140 -155 0
-154 140 155 0
154 -140 -155 0
154 140 155 0
-155 -141 156 0
-155 141 -156 0
155 -141 -156 0
155 141 -156 0
-156 -142 157 0
-156 142 157 0
156 -142 -157 0
156 142 -157 0
-157 -143 -158 0
-157 143 158 0
157 -143 -158 0
157 143 -158 0
-158 -144 -159 0
-158 144 -159 0
158 -144 159 0
158 144 -159 0
-159 -145 160 0
-159 145 160 0
159 -145 -160 0
159 145 160 0
-160 -146 161 0
-160 146 -161 0
160 -146 -161 0
160 146 -161 0
-161 -147 162 0
-161 147 162 0
161 -147 -162 0
161 147 -162 0
-162 -148 163 0
-162 148 163 0
162 -148 -163 0
162 148 -163 0
-163 -149 164 0
-163 149 164 0
163 -149 164 0
163 149 -164 0
-164 -150 -165 0
-164 150 -165 0
164 -150 165 0
164 150 165 0
-151 166 0
151 -166 0
-166 -152 -167 0
-166 152 167 0
166 -152 -167 0
166 152 167 0
-167 -153 -168 0
-167 153 -168 0
167 -153 168 0
167 153 168 0
-168 -154 169 0
-168 154 169 0
168 -154 169 0
168 154 -169 0
-169 -155 -848 170 0
-169 -155 848 -170 0
-169 155 -849 170 0
-169 155 849 -170 0
169 -155 -850 170 0
169 -155 850 -170 0
169 155 -851 170 0
169 155 851 -170 0
-170 -156 -852 171 0
-170 -156 852 -171 0
-170 156 -853 171 0
-170 156 853 -171 0
170 -156 -854 171 0
170 -156 854 -171 0
170 156 -855 171 0
170 156 855 -171 0
-171 -157 172 0
-171 157 -172 0
171 -157 172 0
171 157 -172 0
-172 -158 -860 173 0
-172 -158 860 -173 0
-172 158 -861 173 0
-172 158 861 -173 0
172 -158 -862 173 0
172 -158 862 -173 0
172 158 -863 173 0
172 158 863 -173 0
-173 -159 -864 174 0
-173 -159 864 -174 0
-173 159 -865 174 0
-173 159 865 -174 0
173 -159 -866 174 0
173 -159 866 -174 0
173 159 -867 174 0
173 159 867 -174 0
-174 -160 175 0
-174 160 -175 0
174 -160 -175 0
174 160 175 0
-175 -161 -176 0
-175 161 176 0
175 -161 176 0
175 161 176 0
-176 -162 -177 0
-176 162 -177 0
176 -162 -177 0
176 162 177 0
-177 -163 178 0
-177 163 178 0
177 -163 -178 0
177 163 178 0
-178 -164 -179 0
-178 164 -179 0
178 -164 -179 0
178 164 179 0
-179 -165 -180 0
-179 165 180 0
179 -165 180 0
179 165 180 0
-166 181 0
166 -181 0
-181 -167 -182 0
-181 167 -182 0
181 -167 -182 0
181 167 182 0
-182 -168 183 0
-182 168 183 0
182 -168 -183 0
182 168 -183 0
-183 -169 -184 0
-183 169 184 0
183 -169 -184 0
183 169 184 0
-184 -170 185 0
-184 170 -185 0
184 -170 -185 0
184 170 185 0
-185 -171 -186 0
-185 171 -186 0
185 -171 -186 0
185 171 186 0
-186 -172 187 0
-186 172 -187 0
186 -172 187 0
186 172 -187 0
-187 -173 -188 0
-187 173 -188 0
187 -173 -188 0
187 173 188 0
-188 -174 189 0
-188 174 -189 0
188 -174 189 0
188 174 189 0
-189 -175 190 0
-189 175 -190 0
189 -175 -190 0
189 175 -190 0
-190 -176 191 0
-190 176 -191 0
190 -176 -191 0
190 176 -191 0
-191 -177 -934 192 0
-191 -177 934 -192 0
-191 177 -935 192 0
-191 177 935 -192 0
191 -177 -936 192 0
191 -177 936 -192 0
191 177 -937 192 0
191 177 937 -192 0
-192 -178 193 0
-192 178 -193 0
192 -178 -193 0
192 178 193 0
-193 -179 -194 0
-193 179 -194 0
193 -179 -194 0
193 179 194 0
-194 -180 195 0
-194 180 -195 0
194 -180 -195 0
194 180 195 0
-181 196 0
181 -196 0
-196 -182 -197 0
-196 182 197 0
196 -182 -197 0
196 182 -197 0
-197 -183 -956 198 0
-197 -183 956 -198 0
-197 183 -957 198 0
-197 183 957 -198 0
197 -183 -958 198 0
197 -183 958 -198 0
197 183 -959 198 0
197 183 959 -198 0
-198 -184 199 0
-198 184 199 0
198 -184 -199 0
198 184 -199 0
-199 -185 -200 0
-199 185 200 0
199 -185 -200 0
199 185 -200 0
-200 -186 201 0
-200 186 -201 0
200 -186 201 0
200 186 -201 0
-201 -187 202 0
-201 187 202 0
201 -187 -202 0
201 187 202 0
-202 -188 -976 203 0
-202 -188 976 -203 0
-202 188 -977 203 0
-202 188 977 -203 0
202 -188 -978 203 0
202 -188 978 -203 0
202 188 -979 203 0
202 188 979 -203 0
-203 -189 -204 0
-203 189 -204 0
203 -189 -204 0
203 189 204 0
-204 -190 205 0
-204 190 -205 0
204 -190 205 0
204 190 205 0
-205 -191 -988 206 0
-205 -191 988 -206 0
-205 191 -989 206 0
-205 191 989 -206 0
205 -191 -990 206 0
205 -191 990 -206 0
205 191 -991 206 0
205 191 991 -206 0
-206 -192 207 0
-206 192 207 0
206 -192 207 0
206 192 -207 0
-207 -193 208 0
-207 193 208 0
207 -193 -208 0
207 193 208 0
-208 -194 -1000 209 0
-208 -194 1000 -209 0
-208 194 -1001 209 0
-208 194 1001 -209 0
208 -194 -1002 209 0
208 -194 1002 -209 0
208 194 -1003 209 0
208 194 1003 -209 0
-209 -195 210 0
-209 195 210 0
209 -195 -210 0
209 195 210 0
-196 -211 0
196 211 0
-211 -197 212 0
-211 197 212 0
211 -197 -212 0
211 197 212 0
-212 -198 -213 0
-212 198 213 0
212 -198 213 0
212 198 213 0
-213 -199 -1018 214 0
-213 -199 1018 -214 0
-213 199 -1019 214 0
-213 199 1019 -214 0
213 -199 -1020 214 0
213 -199 1020 -214 0
213 199 -1021 214 0
213 199 1021 -214 0
-214 -200 -1022 215 0
-214 -200 1022 -215 0
-214 200 -1023 215 0
-214 200 1023 -215 0
214 -200 -1024 215 0
214 -200 1024 -215 0
214 200 -1025 215 0
214 200 1025 -215 0
-215 -201 -1026 216 0
-215 -201 1026 -216 0
-215 201 -1027 216 0
-215 201 1027 -216 0
215 -201 -1028 216 0
215 -201 1028 -216 0
215 201 -1029 216 0
215 201 1029 -216 0
-216 -202 217 0
-216 202 -217 0
216 -202 -217 0
216 202 217 0
-217 -203 218 0
-217 203 -218 0
217 -203 -218 0
217 203 -218 0
-218 -204 219 0
-218 204 -219 0
218 -204 219 0
218 204 -219 0
-219 -205 -220 0
-219 205 220 0
219 -205 -220 0
219 205 -220 0
-220 -206 -1046 221 0
-220 -206 1046 -221 0
-220 206 -1047 221 0
-220 206 1047 -221 0
220 -206 -1048 221 0
220 -206 1048 -221 0
220 206 -1049 221 0
220 206 1049 -221 0
-221 -207 222 0
-221 207 -222 0
221 -207 -222 0
221 207 222 0
-222 -208 223 0
-222 208 -223 0
222 -208 223 0
222 208 223 0
-223 -209 224 0
-223 209 224 0
223 -209 -224 0
223 209 224 0
-224 -210 225 0
-224 210 225 0
224 -210 -225 0
224 210 225 0
225 0
