data/benchmarks/bayes/75-15-6-q.gr
p tw 1065 1204
166 181
198 213
15 30
67 68
132 704
47 62
99 100
110 676
59 73
125 674
107 122
159 160
139 154
8 9
108 612
221 1047
40 41
199 214
86 584
122 668
48 63
100 101
80 95
132 133
79 554
92 106
140 155
192 193
98 576
4 231
41 42
172 187
73 74
184 198
172 861
33 47
81 96
133 134
214 1025
14 15
138 725
117 702
125 139
94 560
173 188
67 454
22 37
74 75
106 107
87 530
66 80
114 129
166 167
70 468
65 502
201 1028
47 48
158 172
85 578
203 979
206 221
7 21
55 70
107 108
213 1020
41 410
77 494
131 703
142 740
99 113
147 162
199 200
48 49
80 81
191 205
11 247
40 54
123 726
140 141
177 935
169 851
132 146
206 989
29 310
81 82
49 386
73 87
92 604
173 174
59 427
188 977
22 23
111 626
94 555
165 179
14 28
126 736
114 115
191 991
206 207
55 56
134 713
198 212
47 61
18 263
147 148
60 427
141 739
139 153
207 208
80 503
124 677
107 606
21 36
194 1001
199 213
80 94
113 128
56 411
100 585
172 186
4 230
205 220
54 69
172 860
181 182
146 161
138 724
173 187
3 261
93 554
72 531
87 102
201 1027
65 501
119 710
214 215
179 194
220 1049
28 43
206 220
89 538
62 432
213 1019
41 409
88 103
131 702
120 135
21 22
147 161
141 743
180 195
29 44
11 246
61 76
113 114
177 934
121 136
46 371
100 580
153 168
205 206
206 988
2 17
54 55
55 410
137 727
216 1029
49 385
62 77
94 109
146 147
59 426
154 169
188 976
220 1046
47 433
3 18
74 536
101 642
35 50
87 88
192 937
95 110
127 142
136 776
179 180
28 29
86 528
156 852
187 202
134 712
36 51
88 89
79 498
68 83
85 581
106 604
202 977
18 262
128 143
160 175
29 30
141 738
61 62
124 676
107 605
21 35
194 1000
69 84
121 122
108 668
101 116
153 154
171 855
2 3
113 127
161 176
100 584
213 214
10 25
62 63
94 95
205 219
54 68
102 117
154 155
13 27
3 4
31 313
35 36
64 499
146 160
194 209
209 1003
105 119
43 58
95 96
3 260
127 128
126 739
87 101
135 150
187 188
201 1026
36 37
33 377
68 69
87 586
179 193
28 42
183 959
76 91
89 537
79 502
62 431
116 640
128 129
160 161
63 494
99 578
120 134
168 183
79 93
151 777
69 70
141 742
159 867
101 102
220 221
215 1027
43 417
198 956
161 162
20 34
10 11
100 579
153 167
2 16
19 325
55 409
102 103
137 726
191 935
216 1028
94 108
48 379
194 195
53 67
43 44
68 455
47 432
101 641
192 936
35 49
93 557
84 576
44 363
127 141
86 100
140 736
76 77
9 24
205 991
200 1025
79 497
68 82
168 169
202 976
27 41
160 174
141 737
109 614
42 57
215 1022
108 667
101 115
80 559
171 854
134 149
60 74
30 311
208 1001
56 467
75 90
31 312
209 1002
16 31
74 539
174 864
108 123
34 323
94 615
9 10
17 261
33 376
123 669
49 64
183 958
106 607
186 200
79 501
15 309
62 430
109 124
133 710
170 848
63 493
99 577
42 43
159 866
201 216
82 97
134 135
43 416
97 625
215 1026
47 377
142 157
53 457
23 38
191 934
19 324
55 408
83 98
115 130
29 365
48 378
16 17
102 587
175 190
68 454
58 419
56 71
108 109
78 495
193 207
116 131
84 575
61 433
44 362
88 536
115 642
49 50
158 860
208 223
200 1024
57 72
87 589
109 110
89 104
79 496
167 182
116 643
149 164
170 852
201 202
50 51
30 45
82 83
109 613
42 56
90 105
142 143
200 215
80 558
23 24
134 148
171 853
30 310
182 197
208 1000
83 84
141 156
115 116
56 466
75 89
123 138
173 862
34 48
175 176
24 25
206 1048
56 57
199 1018
64 79
95 561
116 117
174 189
155 850
78 499
108 122
34 322
156 171
67 81
208 209
57 58
167 168
17 260
71 469
89 90
49 63
159 173
97 112
149 150
8 22
183 957
207 222
15 308
63 492
189 204
35 384
100 114
148 163
159 865
200 201
45 425
82 96
192 206
97 624
182 183
41 55
214 1020
31 32
47 376
101 585
141 142
53 456
197 958
23 37
57 417
123 124
127 741
133 147
181 196
50 387
115 129
29 364
173 866
102 586
74 88
33 325
64 65
122 137
174 175
215 216
58 418
112 627
56 70
156 157
15 29
78 494
5 6
132 703
84 574
174 867
115 641
110 675
107 121
97 98
221 1046
43 365
167 181
200 1023
89 103
86 583
122 667
189 190
48 62
148 149
170 851
30 44
140 154
109 612
63 78
98 575
200 214
91 545
222 223
81 95
214 1024
101 589
4 19
141 155
94 559
22 36
122 123
173 861
206 1047
87 529
114 128
70 467
37 52
174 188
95 560
203 978
155 849
55 69
77 493
88 539
71 468
125 677
158 863
70 85
108 615
207 221
123 725
11 26
63 64
79 557
148 162
169 850
29 309
45 424
12 247
4 5
214 1019
101 584
197 957
44 59
57 416
94 554
111 625
127 740
117 705
67 457
50 386
191 990
37 38
173 865
33 324
122 136
196 211
155 170
112 626
199 1021
132 702
96 111
110 674
18 33
70 71
60 426
142 743
130 131
43 364
80 502
188 203
86 582
11 12
122 666
170 185
129 144
56 410
98 574
163 164
44 45
91 544
214 1023
101 588
92 607
203 218
162 177
94 558
144 159
196 197
72 530
173 860
103 118
87 528
155 156
70 466
65 500
137 138
195 210
220 1048
203 977
96 97
18 19
177 192
213 1018
41 408
77 492
88 102
136 151
188 189
125 676
180 194
221 1049
118 133
170 171
29 43
77 92
129 130
123 724
210 225
46 370
111 112
79 556
169 849
169 184
221 222
29 308
151 166
12 246
49 384
62 76
110 125
162 163
172 863
203 204
214 1018
59 425
154 168
111 624
144 145
3 17
138 727
51 66
103 104
117 704
202 217
67 456
50 385
191 989
95 109
85 86
143 158
155 169
119 713
187 201
134 711
177 178
36 50
31 371
85 580
136 137
18 261
96 110
142 742
131 705
60 425
118 119
128 142
77 78
188 202
80 501
124 675
107 604
69 83
169 170
177 937
129 143
56 409
100 583
151 152
161 175
10 24
206 991
110 111
102 116
202 203
25 40
92 606
51 52
64 498
162 176
188 979
194 208
43 57
143 144
72 529
126 738
103 117
135 149
17 32
86 531
195 209
156 855
203 976
220 1047
89 536
168 182
151 776
141 741
50 65
77 91
194 1003
100 578
169 183
79 555
169 848
137 725
25 26
216 1027
110 124
59 424
24 39
47 431
101 640
138 726
51 65
192 935
202 216
84 99
3 263
93 556
191 988
17 18
143 157
176 191
201 1029
65 503
9 23
119 712
134 710
205 990
85 579
117 132
18 260
213 1021
41 411
131 704
99 581
141 736
209 224
58 73
124 674
108 666
198 959
150 165
177 936
100 582
31 46
206 990
91 106
3 231
92 605
183 198
64 497
209 1001
32 47
84 85
158 159
74 538
217 218
124 139
126 737
176 177
94 614
5 20
17 31
86 530
65 80
117 118
123 668
140 739
16 313
106 606
156 854
79 500
109 123
157 172
202 979
209 210
6 21
58 59
99 576
201 215
141 740
191 192
50 64
98 113
107 607
215 1025
194 1002
142 156
190 205
39 54
91 92
137 724
19 323
224 225
83 97
216 1026
131 146
183 184
32 33
48 377
175 189
24 38
47 430
72 87
124 125
192 934
84 98
3 262
93 555
116 130
164 179
61 432
216 217
65 66
176 190
208 222
119 711
198 199
205 989
33 379
57 71
87 588
157 158
6 7
117 131
89 539
133 713
62 433
116 642
139 140
149 163
197 212
98 99
99 580
209 223
58 72
90 104
190 191
215 1029
43 419
39 40
150 164
171 852
198 958
30 309
182 196
172 173
100 581
131 132
191 937
55 411
123 137
223 224
3 230
72 73
183 197
64 496
209 1000
32 46
68 457
64 78
101 643
164 165
74 537
78 498
124 138
94 613
156 170
5 19
44 365
136 777
38 53
86 529
123 667
65 79
140 738
156 853
97 111
16 312
106 605
130 145
79 499
197 198
183 956
157 171
202 978
170 855
6 20
99 575
189 203
159 864
71 86
98 112
215 1024
163 178
108 669
80 561
12 27
53 455
190 204
39 53
208 1003
19 322
104 119
56 469
131 145
29 363
48 376
13 28
45 60
58 417
72 86
105 120
78 493
137 152
38 39
61 431
115 640
34 325
174 866
164 178
46 61
17 263
78 93
205 988
33 378
87 587
200 1022
138 153
79 503
15 311
116 641
19 34
71 72
133 712
63 495
99 579
35 387
170 850
79 94
63 77
197 211
111 126
12 13
215 1028
43 418
97 627
171 186
198 957
20 35
4 18
30 308
47 379
52 67
104 105
112 127
191 936
13 14
206 1046
204 219
102 589
53 68
37 51
85 100
68 456
95 559
145 160
155 848
78 497
46 47
94 612
84 577
26 41
78 79
44 364
88 538
71 467
38 52
158 862
86 101
70 84
76 545
108 614
123 666
138 139
140 737
19 20
130 144
178 193
27 42
11 25
79 80
99 574
170 854
71 85
109 615
119 134
171 172
20 21
215 1023
52 53
163 177
101 583
80 560
12 26
53 454
60 75
44 58
112 113
197 956
208 1002
104 118
152 167
204 205
56 468
1 16
29 362
53 54
173 864
33 323
45 59
58 416
93 108
112 625
145 146
199 1020
26 27
78 492
137 151
185 200
174 865
61 430
86 87
18 32
34 324
17 262
78 92
43 363
126 141
178 179
27 28
138 152
186 201
170 184
133 711
15 310
170 849
19 33
119 120
35 386
111 125
211 212
45 427
97 626
171 185
214 1022
47 378
101 587
203 217
52 66
152 153
57 419
1 2
94 557
112 126
127 743
144 158
212 213
93 94
204 218
102 588
85 99
185 186
95 558
145 159
78 496
132 705
177 191
193 208
26 40
115 643
110 677
59 74
71 466
88 537
125 675
126 127
76 544
158 861
108 613
118 132
186 187
218 219
221 1048
86 585
122 669
178 192
210 224
170 853
92 107
119 133
98 577
219 220
184 199
172 862
101 582
33 48
125 140
117 703
94 561
152 166
67 455
50 384
173 863
34 49
33 322
87 531
66 81
206 1049
70 469
93 107
112 624
193 194
199 1019
158 173
31 370
7 22
59 60
155 851
185 199
142 741
77 495
60 424
67 82
99 114
43 362
80 500
126 140
159 174
191 206
8 23
40 55
92 93
123 727
56 408
35 385
100 115
132 147
184 185
29 311
33 34
45 426
192 207
49 387
41 56
25 39
101 586
73 88
125 126
214 1021
197 959
188 978
57 418
94 556
111 627
127 742
34 35
133 148
165 180
14 29
66 67
72 528
173 867
74 89
106 121
7 8
